62      4       
15      15      13      16      
0       0       0       0       0       3       2       3       4       
8       7       0       0       0       3       5       7       11      
2       0       0       10      0       3       8       10      16      
3       0       4       0       0       3       14      38      40      
8       0       0       0       5       3       6       21      33      
1       0       1       0       0       3       32      52      58      
3       3       0       0       0       3       9       18      20      
2       0       0       2       0       3       11      22      24      
9       0       1       0       0       2       12      15      
4       0       6       0       0       3       22      39      44      
1       5       0       0       0       3       13      28      32      
1       0       1       0       0       2       47      61      
7       0       5       0       0       3       26      31      57      
4       0       0       0       4       3       21      22      45      
8       0       0       0       3       3       17      33      34      
8       0       0       3       0       3       36      41      44      
3       8       0       0       0       2       21      35      
7       0       0       0       5       3       19      27      38      
2       0       0       0       2       3       34      45      46      
3       0       0       0       3       3       23      39      52      
1       0       0       10      0       3       47      48      51      
1       0       0       1       0       3       27      46      53      
3       0       0       0       4       3       30      31      32      
2       5       0       0       0       3       25      33      36      
9       0       0       0       4       3       27      29      60      
6       0       9       0       0       3       29      30      43      
6       1       0       0       0       2       34      56      
3       0       0       4       0       3       29      31      37      
1       9       0       0       0       1       59      
8       0       0       0       8       1       44      
2       0       0       0       1       3       35      36      49      
6       0       4       0       0       2       43      55      
8       7       0       0       0       3       35      41      60      
4       3       0       0       0       2       51      57      
6       0       0       3       0       1       54      
10      0       0       0       6       1       38      
3       0       0       0       4       3       40      45      47      
5       2       0       0       0       2       43      46      
9       0       0       6       0       3       40      41      48      
8       0       0       8       0       2       42      54      
2       0       0       0       9       2       42      50      
9       0       7       0       0       1       53      
9       0       9       0       0       1       60      
9       0       0       0       5       1       55      
1       0       0       0       1       3       48      49      52      
2       0       0       4       0       2       50      51      
2       0       0       9       0       2       49      50      
7       4       0       0       0       1       53      
10      0       0       0       5       1       55      
3       0       1       0       0       1       54      
4       0       0       6       0       1       58      
1       0       0       10      0       1       56      
2       0       3       0       0       2       57      58      
7       0       4       0       0       1       56      
6       0       0       0       2       1       59      
3       0       0       0       7       1       59      
1       0       8       0       0       1       61      
8       0       0       0       7       1       61      
8       8       0       0       0       1       62      
6       4       0       0       0       1       62      
4       0       10      0       0       1       62      
0       0       0       0       0       0       